c description: Random 3-CNF over 20 variables and 85 clauses
c generator: CNFgen (0.9.2)
c copyright: (C) 2012-2022 Massimo Lauria <massimo.lauria@uniroma1.it>
c url: https://massimolauria.net/cnfgen
c command line: cnfgen --output CNF_4.28/20_bit_85_822.cnf randkcnf 3 20 85
c
p cnf 20 85
1 -3 12 0
2 -5 -6 0
-5 8 -11 0
15 -16 19 0
-3 -7 10 0
1 7 17 0
-7 -11 -18 0
1 12 18 0
7 12 14 0
-1 -15 18 0
5 -7 -8 0
9 14 17 0
-2 -14 -15 0
3 -11 12 0
1 -7 -16 0
1 14 18 0
12 14 -17 0
4 -5 -15 0
8 -17 -18 0
-12 -13 18 0
-6 -11 -15 0
-3 -4 15 0
1 -9 -13 0
-16 17 -19 0
-4 -7 18 0
-10 13 -20 0
1 -3 -13 0
-6 -11 -19 0
-7 10 20 0
-5 -6 -19 0
-2 -3 4 0
10 -11 -17 0
2 10 -13 0
3 -8 -15 0
8 -17 20 0
-1 3 20 0
-11 -18 -19 0
17 19 20 0
-2 3 5 0
1 12 -20 0
3 -4 8 0
-7 9 -20 0
-2 12 16 0
3 -13 -14 0
-5 16 -17 0
4 -15 -20 0
11 -17 -18 0
-1 -9 -20 0
8 -11 -19 0
-8 15 18 0
3 5 17 0
4 6 -14 0
-11 -14 20 0
-4 -15 20 0
-1 4 6 0
-5 13 -15 0
-2 -18 -19 0
9 -14 -19 0
5 -12 18 0
-5 -10 -11 0
13 14 -18 0
-1 5 -11 0
-3 -8 20 0
15 18 19 0
-13 -15 19 0
-6 8 -10 0
1 -3 5 0
-2 -3 20 0
-1 4 -17 0
4 10 15 0
1 10 13 0
-9 -14 18 0
6 15 16 0
-10 -11 -17 0
-4 -16 19 0
3 -9 20 0
-4 11 -14 0
7 8 -19 0
-1 3 -13 0
-3 -9 14 0
7 12 -18 0
8 13 20 0
-6 -12 -20 0
-8 -13 -14 0
6 -7 -8 0
